Minimize
  - 11 y_0 - 39 y_1 - 55 y_2 - 41 y_3 - 25 y_4 - 21 y_5 - 49 y_6 - 20 y_7
   - 35 y_8 + 95 x_0_2 + 55 x_0_8 + 23 x_0_9 + 35 x_1_4 + 41 x_1_7
   + 78 x_1_9 + 62 x_2_4 + 86 x_2_5 + 64 x_3_7 + 82 x_3_9 + 21 x_4_8
   + 88 x_5_6 + 62 x_6_7 + 41 x_7_9 + 41 x_7_9 + 41 x_7_9 + 41 x_7_9
   + 41 x_7_9 + 41 x_7_9 + 41 x_7_9 + 41 x_7_9 + 41 x_7_9 + 41 x_7_9
   + 41 x_7_9 + 41 x_7_9 + 41 x_7_9 + 41 x_7_9 + 41 x_7_9 + 41 x_7_9
   + 41 x_7_9 + 41 x_7_9 + 41 x_7_9 + 41 x_7_9 + 41 x_7_9 + 41 x_7_9
   + 41 x_7_9 + 41 x_7_9 + 41 x_7_9 + 41 x_7_9 + 41 x_7_9 + 41 x_7_9
   + 41 x_7_9 + 41 x_7_9 + 41 x_7_9 + 41 x_7_9 + 41 x_7_9 + 41 x_7_9
   + 41 x_7_9 + 41 x_7_9 + 41 x_7_9 + 41 x_7_9 + 41 x_7_9 + 41 x_7_9
   + 41 x_7_9 + 41 x_7_9 + 41 x_7_9 + 41 x_7_9 + 41 x_7_9 + 41 x_7_9
   + 41 x_7_9 + 41 x_7_9 + 41 x_7_9 + 41 x_7_9 + 41 x_7_9 + 41 x_7_9
   + 41 x_7_9 + 41 x_7_9 + 41 x_7_9 + 41 x_7_9 + 41 x_7_9 + 41 x_7_9
   + 41 x_7_9 + 41 x_7_9 + 41 x_7_9 + 41 x_7_9 + 41 x_7_9 + 41 x_7_9
   + 41 x_7_9 + 41 x_7_9 + 41 x_7_9 + 41 x_7_9 + 41 x_7_9 + 41 x_7_9
   + 41 x_7_9 + 41 x_7_9 + 41 x_7_9 + 41 x_7_9 + 41 x_7_9 + 41 x_7_9
   + 41 x_7_9 + 41 x_7_9 + 41 x_7_9 + 41 x_7_9 + 41 x_7_9 + 41 x_7_9
   + 41 x_7_9 + 41 x_7_9 + 41 x_7_9 + 41 x_7_9 + 41 x_7_9 + 41 x_7_9
   + 41 x_7_9 + 41 x_7_9 + 41 x_7_9 + 41 x_7_9 + 41 x_7_9 + 41 x_7_9
   + 41 x_7_9 + 41 x_7_9 + 41 x_7_9 + 41 x_7_9 + 41 x_7_9 + 41 x_7_9
   + 41 x_7_9 + 41 x_7_9 + 41 x_7_9 + 41 x_7_9 + 41 x_7_9 + 41 x_7_9
   + 41 x_7_9 + 41 x_7_9 + 41 x_7_9 + 41 x_7_9 + 41 x_7_9 + 41 x_7_9
   + 41 x_7_9 + 41 x_7_9 + 41 x_7_9 + 41 x_7_9 + 41 x_7_9 + 41 x_7_9
   + 41 x_7_9 + 41 x_7_9 + 41 x_7_9 + 41 x_7_9 + 41 x_7_9 + 41 x_7_9
   + 41 x_7_9 + 41 x_7_9 + 41 x_7_9 + 41 x_7_9 + 41 x_7_9 + 41 x_7_9
   + 41 x_7_9 + 41 x_7_9 + 41 x_7_9 + 41 x_7_9 + 41 x_7_9 + 296 Constant
Subject To
 c_0: y_0 = 1
 c_1_0: y_0 >= 1
 c_1_1: y_1 >= 1
 c_1_2: y_2 >= 1
 c_1_3: y_3 >= 1
 c_1_4: y_4 >= 1
 c_1_5: y_5 >= 1
 c_1_6: y_6 >= 1
 c_1_7: y_7 >= 1
 c_1_8: y_8 >= 1
 c_1_9: y_9 >= 1
 c_2_0: - 2 y_0 + x_0_2 + x_0_8 + x_0_9 = 0
 c_2_1: - 2 y_1 + x_1_4 + x_1_7 + x_1_9 = 0
 c_2_2: - 2 y_2 + x_0_2 + x_2_4 + x_2_5 = 0
 c_2_3: - 2 y_3 + x_3_7 + x_3_9 = 0
 c_2_4: - 2 y_4 + x_1_4 + x_2_4 + x_4_8 = 0
 c_2_5: - 2 y_5 + x_2_5 + x_5_6 = 0
 c_2_6: - 2 y_6 + x_5_6 + x_6_7 = 0
 c_2_7: - 2 y_7 + x_1_7 + x_3_7 + x_6_7 + 135 x_7_9 = 0
 c_2_8: - 2 y_8 + x_0_8 + x_4_8 = 0
 c_2_9: - 2 y_9 + x_0_9 + x_1_9 + x_3_9 + 135 x_7_9 = 0
Bounds
 Constant = 1
Binaries
 y_0 y_1 y_2 y_3 y_4 y_5 y_6 y_7 y_8 y_9 x_0_2 x_0_8 x_0_9 x_1_4 x_1_7
 x_1_9 x_2_4 x_2_5 x_3_7 x_3_9 x_4_8 x_5_6 x_6_7 x_7_9 x_7_9 x_7_9 x_7_9
 x_7_9 x_7_9 x_7_9 x_7_9 x_7_9 x_7_9 x_7_9 x_7_9 x_7_9 x_7_9 x_7_9 x_7_9
 x_7_9 x_7_9 x_7_9 x_7_9 x_7_9 x_7_9 x_7_9 x_7_9 x_7_9 x_7_9 x_7_9 x_7_9
 x_7_9 x_7_9 x_7_9 x_7_9 x_7_9 x_7_9 x_7_9 x_7_9 x_7_9 x_7_9 x_7_9 x_7_9
 x_7_9 x_7_9 x_7_9 x_7_9 x_7_9 x_7_9 x_7_9 x_7_9 x_7_9 x_7_9 x_7_9 x_7_9
 x_7_9 x_7_9 x_7_9 x_7_9 x_7_9 x_7_9 x_7_9 x_7_9 x_7_9 x_7_9 x_7_9 x_7_9
 x_7_9 x_7_9 x_7_9 x_7_9 x_7_9 x_7_9 x_7_9 x_7_9 x_7_9 x_7_9 x_7_9 x_7_9
 x_7_9 x_7_9 x_7_9 x_7_9 x_7_9 x_7_9 x_7_9 x_7_9 x_7_9 x_7_9 x_7_9 x_7_9
 x_7_9 x_7_9 x_7_9 x_7_9 x_7_9 x_7_9 x_7_9 x_7_9 x_7_9 x_7_9 x_7_9 x_7_9
 x_7_9 x_7_9 x_7_9 x_7_9 x_7_9 x_7_9 x_7_9 x_7_9 x_7_9 x_7_9 x_7_9 x_7_9
 x_7_9 x_7_9 x_7_9 x_7_9 x_7_9 x_7_9 x_7_9 x_7_9 x_7_9 x_7_9 x_7_9 x_7_9
 x_7_9 x_7_9 x_7_9 x_7_9 x_7_9 x_7_9 x_7_9 x_7_9 x_7_9 x_7_9 x_7_9
End
